
List of user-set options:

                                    Name   Value                used
                   hessian_approximation = limited-memory        yes
                           linear_solver = ma57                  yes
                  ma57_automatic_scaling = yes                   yes
                                max_iter = 1000                  yes
                             mu_strategy = adaptive              yes
                             output_file = TreatmentOptimizationIPOPTinfo.txt  yes
                             print_level = 5                     yes
                      print_user_options = yes                   yes
                                     tol = 1                     yes
This is Ipopt version 3.12.9, running with linear solver ma57.

Number of nonzeros in equality constraint Jacobian...:    15753
Number of nonzeros in inequality constraint Jacobian.:     1500
Number of nonzeros in Lagrangian Hessian.............:        0

Total number of variables............................:      609
                     variables with only lower bounds:        0
                variables with lower and upper bounds:      609
                     variables with only upper bounds:        0
Total number of equality constraints.................:      303
Total number of inequality constraints...............:      151
        inequality constraints with only lower bounds:        0
   inequality constraints with lower and upper bounds:      151
        inequality constraints with only upper bounds:        0

iter    objective    inf_pr   inf_du lg(mu)  ||d||  lg(rg) alpha_du alpha_pr  ls
   0  9.9000001e-01 9.90e-01 6.07e-02   0.0 0.00e+00    -  0.00e+00 0.00e+00   0
Exception of type: IpoptException in file "Unknown File" at line -1:
 Exception message: Unknown Exception caught in Ipopt
